120 150

48
51
40
44
47
60
41
49
42
51
50
40
59
54
48
48
45
50
56
51
43
43
50
57
52
58
40
55
45
50
52
45
50
40
52
60
49
41
45
51
54
40
52
59
51
40
56
51
43
52
45
53
42
52
57
48
45
42
59
51
49
50
42
50
60
45
45
53
49
48
42
50
59
55
59
48
43
47
53
51
52
47
42
42
42
47
43
60
57
50
43
48
45
57
50
49
51
59
50
42
49
60
60
53
47
50
49
57
44
43
53
55
46
49
45
57
48
54
49
47